Route #1: 14 17 47 10 2 41
Route #2: 23 43 31 1 5 12
Route #3: 45 27 15 42 11 4 24 9 34
Route #4: 40 7 8 39 26 20 3 37
Route #5: 32 36 38 19 25 22 6
Route #6: 44 35 18
Route #7: 28 29 21 30 13 46 33 16
cost 1073
